generated by phonopy
   1.0
     8.6753245999999997    0.0000000000000000    0.0000000000000000
     0.0000000000000000    8.6753245999999997    0.0000000000000000
     0.0000000000000000    0.0000000000000000    8.6753245999999997
Ti C
  32   32
Direct
  0.0049415677672495  0.9978512635425002  0.0040263377009329
  0.2466158739788744  0.2547993799368458  0.9975150301464039
  0.9997539004924019  0.2408063552949261  0.2486357276317858
  0.2627499416153009  0.9943156941208197  0.2584273274632113
  0.9925674345534380  0.0045591493392767  0.5066655584654398
  0.2423163720644427  0.2526533107786891  0.5150881467482953
  0.9835789273783941  0.2573425604274599  0.7604702132838219
  0.2411202032753174  0.9984905876300785  0.7500199904080437
  0.9904153768772682  0.4973578621361981  0.9993715515872511
  0.2561975839443205  0.4873664653568469  0.2492053429897061
  0.0089323360648773  0.5030685225863761  0.4976371371729944
  0.2593503284524783  0.5057734962050087  0.7500255700553148
  0.2423230304691807  0.7563757299422235  0.9985983868222997
  0.0031611038124348  0.7542700102145186  0.2525240607409621
  0.2497223788542833  0.7417894013549121  0.5016405403432275
  0.9912529407684441  0.7590983250975435  0.7490507787677969
  0.4951114801761544  0.9934558849743959  0.9925191879089013
  0.4983693596403553  0.2568722505054203  0.2438765305029787
  0.5027936222238808  0.9994107481158998  0.5021239733621590
  0.5069423118629132  0.2520990504749264  0.7583638903031961
  0.4900621958984108  0.5095997584057700  0.0029346556705574
  0.5104037263639207  0.5017534821523133  0.5058260187097509
  0.5063876252796947  0.7462430628926768  0.2531332336880318
  0.5043984180189691  0.7508152165309054  0.7497302520692367
  0.7357866527797319  0.2560283479463345  0.9984374707510973
  0.7449310614362155  0.9944969137154515  0.2411624350336866
  0.7535163949610089  0.2417826340200722  0.4941699584193723
  0.7627117218663174  0.9957894980966512  0.7462296702871016
  0.7596177890502155  0.4996649733018603  0.2474890413275511
  0.7426260698801987  0.5045326022351599  0.7425241502804359
  0.7493946895083444  0.7442176455443419  0.9951076140282960
  0.7522132951546319  0.7516314350989025  0.4985628806792359
  0.2581106177700039  0.0011934628769201  0.9917778579608126
  0.0008439332093997  0.2428519977058105  0.9852510187943235
  0.0030638743331200  0.9944524570731719  0.2478241400775822
  0.2429827378820250  0.2412955923053898  0.2509375729385444
  0.2583973480629555  0.9850101490160833  0.5129018893168692
  0.9980651036877846  0.2476491501358445  0.4849620960391256
  0.9935480705588715  0.9881187122499863  0.7416772471602242
  0.2395274179870474  0.2568569767673464  0.7475876060219463
  0.2531209051801506  0.5075242265160221  0.9911861916683303
  0.0095208274044614  0.4946777292504938  0.2443231035562109
  0.2456689491596412  0.4979136780385963  0.5021479763077589
  0.9787093474736506  0.5126639305633673  0.7529680133830919
  0.0027201201676894  0.7485608058418661  0.9963853084626474
  0.2567869266106275  0.7481672811974216  0.2583091053601113
  0.0024602414400669  0.7555821651807999  0.4916312199309458
  0.2522710447587148  0.7471628035211090  0.7567690964939096
  0.5025143297209338  0.2589337493210094  0.9901271743447329
  0.4938067157154131  0.9932240417647813  0.2465624192284819
  0.5099511446735465  0.2477172079125085  0.5024364107163625
  0.5009167769454865  0.9989762211039913  0.7426941764990086
  0.5027059950231536  0.4989694276025167  0.2584421499768585
  0.5039430222519338  0.5057069463138004  0.7548751870857676
  0.5015966286634618  0.7422439996846245  0.0007864022446264
  0.5035336785972889  0.7447646399630482  0.4997654289273918
  0.7540174072197593  0.0024142076955347  0.0092500227730599
  0.7467475946886132  0.2525136909209264  0.2481474384439467
  0.7446291046476657  0.0039527955066952  0.5023390115882893
  0.7439319056070951  0.2536877225761391  0.7449786667618920
  0.7517005384115639  0.5089137892695982  0.9892879865723293
  0.7620576434890439  0.5013864192883064  0.4986766361719799
  0.7670445279523802  0.7540487342556417  0.2590845149347706
  0.7493147457984979  0.7456776440976127  0.7516875782636194
