generated by phonopy
   1.0
     8.6753245999999997    0.0000000000000000    0.0000000000000000
     0.0000000000000000    8.6753245999999997    0.0000000000000000
     0.0000000000000000    0.0000000000000000    8.6753245999999997
Ti C
  31   32
Direct
  0.2656747813075047  0.2609026865366262  0.0080451413541969
  0.0137365864839099  0.2542650659308296  0.2648031364406371
  0.2460495310992082  0.0158815798733070  0.2611563606201758
  0.0014159918208720  0.0115234028363261  0.5158076725777869
  0.2660049083300538  0.2527558688439137  0.5079347386252384
  0.9931791581832276  0.2471820154087771  0.7504861882810062
  0.2467963524852129  0.9992841730990834  0.7480760701453818
  0.0071592771027977  0.5012012138232470  0.0057142525713737
  0.2553176080076612  0.4986117131662308  0.2533040128315455
  0.0079811755695201  0.5001491915979671  0.4872273074494348
  0.2511405185787906  0.4961363229340849  0.7494214943439726
  0.2659602453425688  0.7470590347909600  0.0032058513422755
  0.0053096928105184  0.7448757367447800  0.2493025761821155
  0.2449854131935784  0.7555907826614260  0.4850744093304249
  0.9942154465544391  0.7407073074009735  0.7411781572415516
  0.4799173762626304  0.9997420984099101  0.9976967935673761
  0.5095215435388822  0.2603797316688525  0.2530107814583084
  0.5072827424338624  0.0010024046928486  0.4962674835441748
  0.4913831201269021  0.2432283659872348  0.7621415657389065
  0.4880381855583072  0.4936156706029852  0.9919109401490085
  0.4972771447194665  0.4987203133114519  0.5119852691551059
  0.4975196634541175  0.7466651374926646  0.2506272089780518
  0.4909676575043789  0.7550701214086880  0.7474324026984188
  0.7478428017242149  0.2400498431462010  0.0045174170047003
  0.7571139880921937  0.9957532886784933  0.2484186450204442
  0.7482272675259567  0.2644880062505355  0.5065319938484996
  0.7437628004347981  0.9963832713123124  0.7412004337724996
  0.7540947178922163  0.4972534726025579  0.2478946594832412
  0.7529516243434271  0.4871619635698132  0.7583107253043390
  0.7278175534105973  0.7404307650284240  0.9868080734412378
  0.7480574327527457  0.7535255706264320  0.4959914927510924
  0.2274290956203653  0.9994095271141566  0.0171073938354936
  0.9442906526373926  0.0166466314789445  0.9234046716758599
  0.0102261267170304  0.9978347142718546  0.2026789591684081
  0.2486808875688239  0.2568017563633530  0.2441825412043657
  0.2550972950705727  0.0009680308522708  0.5009946201457421
  0.0051454623406475  0.2552960093655983  0.5040698351637486
  0.9953645666637041  0.0012946386257338  0.7533938629634623
  0.2445830158340121  0.2497617020534226  0.7548381794499684
  0.2492562157808645  0.5032880624676460  0.9996199660635344
  0.0019121859929545  0.5021810686665275  0.2464169266683640
  0.2480514394527549  0.4965467698240856  0.5007431807475369
  0.9961153862529690  0.4948339076126217  0.7520026752884046
  0.0671620538170920  0.0206489693462253  0.0554122251625517
  0.2525522154083659  0.7502634445093297  0.2493990645284913
  0.0074451006014309  0.7524468863591400  0.5027475260539785
  0.2429499678383777  0.7627823278842525  0.7607974026783103
  0.4997029253152905  0.2475487776596185  0.0062510757558163
  0.5160173769205209  0.9998402733505308  0.2526555926459257
  0.5069505894062353  0.2561696432439217  0.5045582586446145
  0.4884992112065639  0.0022128701860826  0.7456472462645481
  0.5066593003278959  0.4958010856975711  0.2499456157747117
  0.4909653473105450  0.4905557198830576  0.7569190910246778
  0.4968025030154417  0.7609978314205995  0.0006127091438201
  0.4961978425281443  0.7538171339476467  0.5040966337401381
  0.7779823875983317  0.9810178142365735  0.9826350367879112
  0.7629071855928853  0.2495434012287581  0.2509896397255265
  0.7782172530820990  0.9953087643708904  0.5013940391602635
  0.7480099696417424  0.2363758215980825  0.7607058645924258
  0.7433573649726913  0.5012432113811693  0.9984073600408629
  0.7606598837047681  0.4987218260725161  0.4950305496540741
  0.7544055312268493  0.7561978874386787  0.2431747054878921
  0.7398668073846841  0.7538717018797484  0.7449978774243275
