generated by phonopy
   1.0
     8.6753245999999997    0.0000000000000000    0.0000000000000000
     0.0000000000000000    8.6753245999999997    0.0000000000000000
     0.0000000000000000    0.0000000000000000    8.6753245999999997
Ti C
  32   31
Direct
  0.0070986091512678  0.0070539760550317  0.0060379927924187
  0.2587612346461489  0.2497607305741107  0.9976811022660914
  0.9987480501761526  0.2532070053101727  0.2497486556158581
  0.2509261037062249  0.9945528797329084  0.2539637431712327
  0.9953296319447011  0.0089256941158398  0.4941626292618068
  0.2478136734939492  0.2458499118446066  0.4953963679478552
  0.9979730229746191  0.2336097248612565  0.7362649792593143
  0.2586277108106351  0.9933340810207137  0.7541135092497578
  0.0023395813303120  0.4920440461939116  0.9809375786472900
  0.2554904132348449  0.5037273941365759  0.2588401396645781
  0.9912604809358957  0.5048120765430535  0.4958303826008876
  0.2455402591293849  0.4971779939339154  0.7434887512019661
  0.2460378831462277  0.7476397467068421  0.9948805419305357
  0.9931805486197678  0.7574958397923133  0.2429984207574774
  0.2355396759402297  0.7494619457491796  0.5073756297340413
  0.9910058268319818  0.7415789756284231  0.7454657047187334
  0.4970791383452962  0.9991144948022954  0.0070266709562856
  0.4958634159335545  0.2572926696305630  0.2446881841672591
  0.4980393308441599  0.0196278721857560  0.4975113978294504
  0.5003712223782399  0.2496903676255965  0.7590186194469968
  0.5026572387040130  0.4990571808258686  0.0077001281951186
  0.4996114376157398  0.4966041248239114  0.5066289033687376
  0.5037370455723381  0.7553996505573958  0.2493791760848228
  0.5076308809577316  0.7423103025850074  0.7617599847629981
  0.7411598695881840  0.2496594689853683  0.0057520373896588
  0.7467866422814211  0.0019274956224018  0.2550004215867451
  0.7568978181288797  0.2466526593072064  0.5082011626535656
  0.7485994440786697  0.9947161426891479  0.7466547455092508
  0.7420180138190868  0.4964061878916496  0.2445580618071057
  0.7505712803453102  0.5055361324374195  0.7459148454690111
  0.7591603287659240  0.7487074575757834  0.0027959721743379
  0.7609919990490174  0.7547356970570009  0.4958032836568644
  0.2509183759069914  0.9997048968163591  0.9986870423986188
  0.0066591280443435  0.2455077317431267  0.9929500604624354
  0.9971820463557549  0.0009286594619553  0.2481907713079431
  0.2593912048557882  0.2654197193468389  0.2430049174430171
  0.2556989855398195  0.9843092023330745  0.4927505984147219
  0.0019234106959087  0.2487140828976074  0.4977884969528419
  0.0015254126218695  0.9932202397740166  0.7454807060248071
  0.2501692107284934  0.2484652165561809  0.7605069690622319
  0.2594326444483288  0.4940476887281481  0.9935041905830088
  0.0028711495416671  0.5102868436360010  0.2573219698851927
  0.2471210860186226  0.5001548748897353  0.4957611102030363
  0.0056066182784420  0.4887575230507021  0.7354294684856963
  0.0020266820137367  0.7539011838221359  0.0012438923633509
  0.2440875521947310  0.7661971278454931  0.2521251097712930
  0.9987666434817545  0.7597237583460094  0.5086051209671829
  0.2508802209268606  0.7455865491040975  0.7515392118349156
  0.5006308427014995  0.2547564934802490  0.9974802423095177
  0.5051041179158346  0.9993470889031566  0.2583335043895369
  0.5033282250939970  0.2593039269576906  0.4977635352173587
  0.5005113326268041  0.9934830482042468  0.7463852258805618
  0.5038875231827239  0.5034691821869448  0.2533935313104320
  0.5063292255160494  0.4902459460392355  0.7505411332446958
  0.4970349845907753  0.7512069897681799  0.0056261952925873
  0.7499897944854783  0.9973729497732723  0.0004990590607506
  0.7409545508686831  0.2601483836832982  0.2578711849247418
  0.7551564317155535  0.0011001105144336  0.5007477878712240
  0.7553774544475832  0.2363796428205929  0.7515721558546656
  0.7689759183524931  0.5036065435187023  0.0060712291965073
  0.7430904312253491  0.4988931497654331  0.5037552689784305
  0.7452747970858111  0.7528040128839000  0.2577895355594682
  0.7379280739982355  0.7522457738459711  0.7549014595994517
